(set-info :Origin "This instance was generated by: BanditFuzz-- an RL fuzzer for SMT solvers" )
(set-info :Author "Joe Scott, Fed Mora, Vijay Ganesh" )
(set-info :Contact "Joe Scott, joseph.scott@uwaterloo.ca")
; solvers/z3.sh
; 	time => 0.10688328742980957
; 	answer => unsat
; solvers/bitwuzla.sh
; 	time => 0.09616398811340332
; 	answer => unsat
; solvers/cvc4.sh
; 	time => 0.11029911041259766
; 	answer => err
(set-logic QF_BV)
(declare-const bool_0 Bool)
(declare-const bool_1 Bool)
(declare-const bool_2 Bool)
(declare-const bool_3 Bool)
(declare-const bool_4 Bool)
(declare-const bv_0 (_ BitVec 32))
(declare-const bv_1 (_ BitVec 32))
(declare-const bv_2 (_ BitVec 32))
(declare-const bv_3 (_ BitVec 32))
(declare-const bv_4 (_ BitVec 32))
(assert (and (bvsgt (bvmul #x7614dabc  #x5f55e61f ) (bvurem #x7bf07874  #xba80f3e1 )) (xor (bvsgt bv_4 #x9fc06abf ) (bvugt #x7969e9bc  bv_4))))
(assert (bvsge (bvor (bvashr bv_4 #x3c54edc4 ) (bvor bv_2 bv_3)) (bvmul (bvlshr #x60c8b34f  #x7ab987b3 ) (bvsmod #xba792aaf  bv_4))))
(assert (not (bvule (bvxor bv_2 #xbbfda8f4 ) (bvsub #xf277d61a  #xa74ba420 ))))
(assert (and (bvsge (bvsdiv #x731246ca  #x3cf7b5d3 ) (bvand #xc2aa055d  #x61aab018 )) (=> (xor bool_1 false) (bvult bv_4 #x4f2fe6e6 ))))
(assert (and (not (bvsle #xb833fd69  #x4ce8d887 )) (not (bvsge bv_2 bv_3))))
(check-sat)
(exit)
